proyfinal/src/viki/013/experimentInOfficeAgust.take6.output/3f4c16b8-b847-44e8-8d1c-2b6a268b08a5.als.out
Reading from standard input... Use '--help' for help.
============================[ Problem Statistics ]=============================
|                                                                             |
|  Number of variables:         87638                                         |
|  Number of clauses:          161767                                         |
|  Parse time:                   0.03 s                                       |
|                                                                             |
============================[ Search Statistics ]==============================
| Conflicts |          ORIGINAL         |          LEARNT          | Progress |
|           |    Vars  Clauses Literals |    Limit  Clauses Lit/Cl |          |
===============================================================================
|       100 |   63938   110727   276769 |    40599      100     27 | 27.043 % |
|       250 |   63938   110727   276769 |    44659      250     21 | 27.043 % |
|       475 |   63938   110727   276769 |    49125      475     46 | 27.043 % |
|       812 |   63938   110727   276769 |    54038      812     57 | 27.043 % |
|      1318 |   63938   110727   276769 |    59442     1318     67 | 27.043 % |
|      2077 |   63937   110683   276679 |    65386     2075     60 | 27.044 % |
|      3216 |   63917   110599   276486 |    71925     3213     72 | 27.067 % |
|      4924 |   63889   110483   276221 |    79117     4918     83 | 27.099 % |
|      7486 |   63867   110391   276010 |    87029     7477     90 | 27.124 % |
|     11330 |   63837   110271   275726 |    95732    11316     88 | 27.158 % |
===============================================================================
restarts              : 62
conflicts             : 16027          (6318 /sec)
decisions             : 58963          (0.00 % random) (23242 /sec)
propagations          : 24075170       (9490007 /sec)
conflict literals     : 1304451        (51.57 % deleted)
Memory used           : 29.08 MB
CPU time              : 2.5369 s

INDETERMINATE
